problem_generation/data/GISP/train/er_n=64_m=1212_p=0.60_SET2_setparam=100.00_alpha=0.50_962.lp
maximize
OBJ:100x0 + 100x1 + 100x2 + 100x3 + 100x4 + 100x5 + 100x6 + 100x7 + 100x8 + 100x9 + 100x10 + 100x11 + 100x12 + 100x13 + 100x14 + 100x15 + 100x16 + 100x17 + 100x18 + 100x19 + 100x20 + 100x21 + 100x22 + 100x23 + 100x24 + 100x25 + 100x26 + 100x27 + 100x28 + 100x29 + 100x30 + 100x31 + 100x32 + 100x33 + 100x34 + 100x35 + 100x36 + 100x37 + 100x38 + 100x39 + 100x40 + 100x41 + 100x42 + 100x43 + 100x44 + 100x45 + 100x46 + 100x47 + 100x48 + 100x49 + 100x50 + 100x51 + 100x52 + 100x53 + 100x54 + 100x55 + 100x56 + 100x57 + 100x58 + 100x59 + 100x60 + 100x61 + 100x62 + 100x63 - y55_57 - y47_53 - y47_62 - y15_39 - y26_39 - y29_32 - y8_9 - y0_5 - y48_63 - y6_57 - y29_59 - y21_55 - y41_42 - y33_38 - y2_32 - y25_34 - y33_47 - y44_47 - y2_41 - y10_54 - y44_56 - y2_50 - y2_59 - y3_24 - y43_60 - y22_37 - y3_42 - y36_48 - y47_48 - y15_25 - y17_44 - y17_53 - y18_30 - y9_49 - y21_32 - y6_52 - y29_54 - y6_61 - y29_63 - y2_27 - y25_29 - y2_36 - y44_51 - y32_55 - y22_32 - y13_51 - y3_28 - y14_28 - y24_60 - y14_37 - y55_56 - y47_52 - y59_63 - y28_57 - y6_29 - y9_62 - y6_38 - y48_53 - y21_45 - y40_58 - y10_26 - y25_33 - y32_50 - y35_46 - y3_23 - y14_23 - y14_32 - y16_51 - y16_60 - y17_25 - y36_38 - y9_30 - y28_43 - y36_56 - y28_52 - y6_15 - y9_48 - y5_59 - y50_58 - y21_49 - y2_17 - y54_55 - y10_30 - y23_58 - y3_9 - y4_63 - y32_45 - y43_45 - y32_54 - y16_37 - y1_48 - y13_50 - y24_50 - y32_63 - y35_50 - y43_63 - y17_29 - y36_42 - y17_38 - y47_51 - y28_47 - y50_53 - y6_28 - y29_30 - y6_37 - y42_58 - y20_39 - y20_48 - y39_61 - y12_44 - y2_30 - y24_27 - y1_34 - y16_32 - y13_45 - y32_58 - y16_41 - y43_58 - y1_52 - y13_54 - y9_11 - y16_59 - y5_22 - y17_24 - y57_60 - y42_44 - y50_57 - y8_51 - y21_30 - y11_56 - y2_7 - y39_56 - y2_16 - y31_52 - y54_63 - y12_57 - y13_22 - y32_35 - y32_44 - y13_40 - y16_36 - y24_49 - y35_49 - y16_45 - y35_58 - y5_17 - y46_55 - y9_24 - y49_60 - y17_37 - y28_37 - y6_9 - y27_41 - y19_46 - y27_59 - y39_42 - y23_25 - y31_56 - y4_48 - y13_26 - y24_26 - y32_39 - y53_62 - y24_35 - y38_46 - y17_23 - y9_28 - y15_62 - y5_39 - y7_58 - y27_36 - y8_32 - y19_32 - y0_37 - y27_63 - y42_61 - y0_55 - y12_20 - y39_46 - y12_29 - y1_10 - y23_56 - y1_19 - y34_53 - y45_53 - y1_28 - y13_30 - y16_26 - y1_37 - y37_58 - y1_46 - y5_7 - y38_41 - y26_48 - y46_63 - y26_57 - y49_59 - y7_53 - y7_62 - y8_27 - y18_62 - y19_27 - y30_36 - y8_54 - y30_54 - y12_15 - y8_63 - y30_63 - y4_11 - y12_24 - y52_60 - y34_39 - y34_57 - y45_57 - y16_30 - y37_62 - y26_34 - y46_49 - y15_43 - y38_45 - y18_39 - y49_54 - y7_48 - y8_13 - y18_57 - y8_31 - y19_31 - y30_31 - y11_27 - y19_40 - y27_53 - y0_36 - y30_49 - y0_45 - y11_45 - y20_23 - y0_54 - y11_54 - y12_19 - y52_55 - y25_56 - y1_9 - y2_63 - y37_39 - y14_46 - y22_59 - y34_61 - y15_20 - y38_40 - y38_49 - y0_4 - y27_30 - y19_26 - y27_39 - y30_35 - y30_44 - y0_40 - y11_49 - y41_50 - y12_23 - y41_59 - y4_19 - y10_53 - y25_60 - y22_36 - y22_45 - y14_41 - y34_56 - y3_50 - y37_61 - y15_24 - y26_33 - y7_29 - y18_29 - y7_38 - y8_12 - y7_56 - y18_56 - y8_30 - y0_26 - y29_62 - y0_35 - y41_45 - y52_54 - y2_44 - y33_59 - y3_27 - y14_45 - y37_56 - y7_15 - y15_37 - y26_37 - y7_33 - y26_46 - y7_42 - y29_39 - y8_16 - y11_12 - y29_48 - y0_21 - y6_55 - y21_62 - y41_58 - y10_52 - y44_54 - y10_61 - y34_37 - y3_40 - y14_40 - y22_53 - y14_49 - y7_10 - y36_46 - y55_59 - y7_19 - y47_55 - y26_32 - y18_28 - y28_60 - y7_37 - y29_34 - y8_11 - y48_56 - y21_39 - y0_16 - y29_52 - y25_27 - y2_34 - y33_49 - y44_49 - y2_52 - y3_17 - y3_26 - y14_26 - y22_39 - y13_58 - y24_58 - y3_35 - y14_35 - y47_50 - y7_23 - y5_53 - y5_62 - y21_25 - y6_36 - y6_45 - y21_43 - y40_56 - y21_52 - y10_15 - y21_61 - y33_35 - y2_29 - y10_42 - y2_38 - y3_12 - y32_48 - y43_48 - y51_61 - y35_53 - y1_60 - y17_32 - y28_41 - y5_48 - y17_50 - y36_63 - y9_46 - y5_57 - y6_22 - y6_31 - y21_38 - y29_51 - y20_60 - y54_62 - y2_33 - y2_42 - y24_39 - y35_39 - y3_16 - y13_48 - y43_61 - y13_57 - y24_57 - y16_53 - y36_40 - y9_23 - y28_36 - y47_49 - y17_45 - y5_52 - y17_54 - y9_50 - y5_61 - y9_59 - y50_60 - y6_35 - y21_33 - y21_42 - y39_50 - y2_10 - y2_19 - y54_57 - y12_60 - y32_38 - y24_34 - y16_39 - y24_52 - y16_48 - y17_22 - y9_18 - y5_29 - y28_31 - y5_38 - y5_56 - y6_21 - y58_59 - y50_55 - y6_30 - y8_58 - y42_60 - y39_45 - y31_41 - y2_23 - y13_20 - y13_29 - y16_34 - y24_47 - y1_54 - y13_56 - y5_15 - y9_13 - y5_24 - y46_62 - y9_22 - y38_58 - y5_33 - y49_58 - y9_31 - y6_25 - y42_46 - y27_57 - y19_53 - y42_55 - y0_49 - y19_62 - y30_62 - y11_58 - y39_40 - y31_36 - y12_32 - y2_18 - y4_37 - y31_54 - y12_50 - y31_63 - y13_24 - y53_60 - y32_37 - y1_31 - y13_42 - y35_42 - y16_38 - y1_49 - y35_51 - y16_47 - y5_10 - y46_57 - y9_17 - y49_53 - y15_60 - y6_20 - y30_39 - y11_44 - y8_57 - y19_57 - y0_62 - y12_27 - y39_44 - y2_4 - y12_36 - y23_36 - y20_49 - y4_32 - y31_49 - y12_45 - y1_8 - y12_54 - y23_54 - y53_55 - y23_63 - y1_26 - y13_28 - y4_59 - y24_28 - y34_60 - y35_37 - y45_60 - y56_60 - y5_14 - y9_12 - y8_25 - y27_38 - y0_30 - y8_43 - y30_43 - y27_56 - y0_39 - y8_52 - y12_13 - y19_61 - y20_26 - y11_57 - y12_22 - y31_35 - y20_44 - y34_46 - y53_59 - y34_55 - y37_51 - y22_62 - y3_58 - y14_58 - y38_43 - y9_16 - y26_50 - y7_55 - y18_55 - y27_33 - y19_29 - y0_25 - y30_38 - y27_51 - y30_47 - y20_21 - y11_52 - y52_53 - y0_61 - y11_61 - y31_39 - y4_22 - y33_58 - y23_35 - y1_7 - y22_48 - y45_50 - y1_25 - y53_63 - y34_59 - y5_13 - y7_32 - y18_32 - y15_45 - y7_41 - y15_54 - y18_50 - y15_63 - y18_59 - y8_24 - y19_24 - y19_33 - y27_46 - y19_42 - y0_38 - y4_35 - y1_11 - y1_20 - y14_39 - y53_58 - y14_48 - y37_50 - y22_61 - y34_63 - y56_63 - y15_22 - y7_18 - y15_58 - y7_54 - y11_15 - y19_28 - y0_24 - y29_60 - y11_42 - y33_39 - y4_12 - y10_46 - y33_48 - y44_48 - y4_21 - y33_57 - y25_53 - y22_29 - y2_60 - y25_62 - y34_49 - y56_58 - y15_17 - y7_13 - y18_22 - y15_35 - y15_44 - y7_49 - y0_10 - y29_55 - y30_32 - y6_62 - y11_28 - y25_30 - y4_7 - y10_41 - y41_56 - y52_56 - y4_16 - y44_52 - y25_48 - y33_61 - y22_24 - y3_20 - y14_20 - y14_29 - y34_44 - y14_38 - y3_56
 Subject to
C1: x0+x1 <=1 
C2: x0+x3 <=1 
C3: x0+x4-y0_4 <=1 
C4: x0+x5-y0_5 <=1 
C5: x0+x10-y0_10 <=1 
C6: x0+x12 <=1 
C7: x0+x13 <=1 
C8: x0+x15 <=1 
C9: x0+x16-y0_16 <=1 
C10: x0+x17 <=1 
C11: x0+x21-y0_21 <=1 
C12: x0+x24-y0_24 <=1 
C13: x0+x25-y0_25 <=1 
C14: x0+x26-y0_26 <=1 
C15: x0+x27 <=1 
C16: x0+x29 <=1 
C17: x0+x30-y0_30 <=1 
C18: x0+x32 <=1 
C19: x0+x35-y0_35 <=1 
C20: x0+x36-y0_36 <=1 
C21: x0+x37-y0_37 <=1 
C22: x0+x38-y0_38 <=1 
C23: x0+x39-y0_39 <=1 
C24: x0+x40-y0_40 <=1 
C25: x0+x43 <=1 
C26: x0+x45-y0_45 <=1 
C27: x0+x46 <=1 
C28: x0+x47 <=1 
C29: x0+x48 <=1 
C30: x0+x49-y0_49 <=1 
C31: x0+x50 <=1 
C32: x0+x52 <=1 
C33: x0+x54-y0_54 <=1 
C34: x0+x55-y0_55 <=1 
C35: x0+x59 <=1 
C36: x0+x61-y0_61 <=1 
C37: x0+x62-y0_62 <=1 
C38: x1+x3 <=1 
C39: x1+x4 <=1 
C40: x1+x5 <=1 
C41: x1+x6 <=1 
C42: x1+x7-y1_7 <=1 
C43: x1+x8-y1_8 <=1 
C44: x1+x9-y1_9 <=1 
C45: x1+x10-y1_10 <=1 
C46: x1+x11-y1_11 <=1 
C47: x1+x15 <=1 
C48: x1+x17 <=1 
C49: x1+x19-y1_19 <=1 
C50: x1+x20-y1_20 <=1 
C51: x1+x21 <=1 
C52: x1+x22 <=1 
C53: x1+x24 <=1 
C54: x1+x25-y1_25 <=1 
C55: x1+x26-y1_26 <=1 
C56: x1+x28-y1_28 <=1 
C57: x1+x29 <=1 
C58: x1+x30 <=1 
C59: x1+x31-y1_31 <=1 
C60: x1+x32 <=1 
C61: x1+x34-y1_34 <=1 
C62: x1+x36 <=1 
C63: x1+x37-y1_37 <=1 
C64: x1+x39 <=1 
C65: x1+x40 <=1 
C66: x1+x42 <=1 
C67: x1+x45 <=1 
C68: x1+x46-y1_46 <=1 
C69: x1+x48-y1_48 <=1 
C70: x1+x49-y1_49 <=1 
C71: x1+x52-y1_52 <=1 
C72: x1+x54-y1_54 <=1 
C73: x1+x55 <=1 
C74: x1+x57 <=1 
C75: x1+x60-y1_60 <=1 
C76: x1+x62 <=1 
C77: x1+x63 <=1 
C78: x2+x3 <=1 
C79: x2+x4-y2_4 <=1 
C80: x2+x5 <=1 
C81: x2+x6 <=1 
C82: x2+x7-y2_7 <=1 
C83: x2+x9 <=1 
C84: x2+x10-y2_10 <=1 
C85: x2+x11 <=1 
C86: x2+x16-y2_16 <=1 
C87: x2+x17-y2_17 <=1 
C88: x2+x18-y2_18 <=1 
C89: x2+x19-y2_19 <=1 
C90: x2+x22 <=1 
C91: x2+x23-y2_23 <=1 
C92: x2+x26 <=1 
C93: x2+x27-y2_27 <=1 
C94: x2+x29-y2_29 <=1 
C95: x2+x30-y2_30 <=1 
C96: x2+x31 <=1 
C97: x2+x32-y2_32 <=1 
C98: x2+x33-y2_33 <=1 
C99: x2+x34-y2_34 <=1 
C100: x2+x36-y2_36 <=1 
C101: x2+x37 <=1 
C102: x2+x38-y2_38 <=1 
C103: x2+x39 <=1 
C104: x2+x40 <=1 
C105: x2+x41-y2_41 <=1 
C106: x2+x42-y2_42 <=1 
C107: x2+x44-y2_44 <=1 
C108: x2+x49 <=1 
C109: x2+x50-y2_50 <=1 
C110: x2+x52-y2_52 <=1 
C111: x2+x54 <=1 
C112: x2+x55 <=1 
C113: x2+x58 <=1 
C114: x2+x59-y2_59 <=1 
C115: x2+x60-y2_60 <=1 
C116: x2+x62 <=1 
C117: x2+x63-y2_63 <=1 
C118: x3+x6 <=1 
C119: x3+x7 <=1 
C120: x3+x9-y3_9 <=1 
C121: x3+x11 <=1 
C122: x3+x12-y3_12 <=1 
C123: x3+x13 <=1 
C124: x3+x14 <=1 
C125: x3+x16-y3_16 <=1 
C126: x3+x17-y3_17 <=1 
C127: x3+x18 <=1 
C128: x3+x20-y3_20 <=1 
C129: x3+x23-y3_23 <=1 
C130: x3+x24-y3_24 <=1 
C131: x3+x26-y3_26 <=1 
C132: x3+x27-y3_27 <=1 
C133: x3+x28-y3_28 <=1 
C134: x3+x30 <=1 
C135: x3+x31 <=1 
C136: x3+x32 <=1 
C137: x3+x35-y3_35 <=1 
C138: x3+x38 <=1 
C139: x3+x39 <=1 
C140: x3+x40-y3_40 <=1 
C141: x3+x41 <=1 
C142: x3+x42-y3_42 <=1 
C143: x3+x46 <=1 
C144: x3+x47 <=1 
C145: x3+x48 <=1 
C146: x3+x49 <=1 
C147: x3+x50-y3_50 <=1 
C148: x3+x53 <=1 
C149: x3+x54 <=1 
C150: x3+x56-y3_56 <=1 
C151: x3+x57 <=1 
C152: x3+x58-y3_58 <=1 
C153: x3+x60 <=1 
C154: x3+x62 <=1 
C155: x4+x6 <=1 
C156: x4+x7-y4_7 <=1 
C157: x4+x9 <=1 
C158: x4+x10 <=1 
C159: x4+x11-y4_11 <=1 
C160: x4+x12-y4_12 <=1 
C161: x4+x13 <=1 
C162: x4+x15 <=1 
C163: x4+x16-y4_16 <=1 
C164: x4+x17 <=1 
C165: x4+x18 <=1 
C166: x4+x19-y4_19 <=1 
C167: x4+x21-y4_21 <=1 
C168: x4+x22-y4_22 <=1 
C169: x4+x23 <=1 
C170: x4+x31 <=1 
C171: x4+x32-y4_32 <=1 
C172: x4+x33 <=1 
C173: x4+x35-y4_35 <=1 
C174: x4+x36 <=1 
C175: x4+x37-y4_37 <=1 
C176: x4+x42 <=1 
C177: x4+x43 <=1 
C178: x4+x45 <=1 
C179: x4+x48-y4_48 <=1 
C180: x4+x50 <=1 
C181: x4+x54 <=1 
C182: x4+x56 <=1 
C183: x4+x59-y4_59 <=1 
C184: x4+x61 <=1 
C185: x4+x62 <=1 
C186: x4+x63-y4_63 <=1 
C187: x5+x7-y5_7 <=1 
C188: x5+x10-y5_10 <=1 
C189: x5+x11 <=1 
C190: x5+x13-y5_13 <=1 
C191: x5+x14-y5_14 <=1 
C192: x5+x15-y5_15 <=1 
C193: x5+x17-y5_17 <=1 
C194: x5+x20 <=1 
C195: x5+x22-y5_22 <=1 
C196: x5+x23 <=1 
C197: x5+x24-y5_24 <=1 
C198: x5+x26 <=1 
C199: x5+x28 <=1 
C200: x5+x29-y5_29 <=1 
C201: x5+x30 <=1 
C202: x5+x31 <=1 
C203: x5+x32 <=1 
C204: x5+x33-y5_33 <=1 
C205: x5+x36 <=1 
C206: x5+x38-y5_38 <=1 
C207: x5+x39-y5_39 <=1 
C208: x5+x40 <=1 
C209: x5+x41 <=1 
C210: x5+x44 <=1 
C211: x5+x45 <=1 
C212: x5+x46 <=1 
C213: x5+x48-y5_48 <=1 
C214: x5+x50 <=1 
C215: x5+x52-y5_52 <=1 
C216: x5+x53-y5_53 <=1 
C217: x5+x55 <=1 
C218: x5+x56-y5_56 <=1 
C219: x5+x57-y5_57 <=1 
C220: x5+x58 <=1 
C221: x5+x59-y5_59 <=1 
C222: x5+x61-y5_61 <=1 
C223: x5+x62-y5_62 <=1 
C224: x5+x63 <=1 
C225: x6+x7 <=1 
C226: x6+x8 <=1 
C227: x6+x9-y6_9 <=1 
C228: x6+x10 <=1 
C229: x6+x12 <=1 
C230: x6+x14 <=1 
C231: x6+x15-y6_15 <=1 
C232: x6+x16 <=1 
C233: x6+x17 <=1 
C234: x6+x19 <=1 
C235: x6+x20-y6_20 <=1 
C236: x6+x21-y6_21 <=1 
C237: x6+x22-y6_22 <=1 
C238: x6+x23 <=1 
C239: x6+x25-y6_25 <=1 
C240: x6+x28-y6_28 <=1 
C241: x6+x29-y6_29 <=1 
C242: x6+x30-y6_30 <=1 
C243: x6+x31-y6_31 <=1 
C244: x6+x32 <=1 
C245: x6+x34 <=1 
C246: x6+x35-y6_35 <=1 
C247: x6+x36-y6_36 <=1 
C248: x6+x37-y6_37 <=1 
C249: x6+x38-y6_38 <=1 
C250: x6+x40 <=1 
C251: x6+x41 <=1 
C252: x6+x42 <=1 
C253: x6+x45-y6_45 <=1 
C254: x6+x52-y6_52 <=1 
C255: x6+x53 <=1 
C256: x6+x55-y6_55 <=1 
C257: x6+x57-y6_57 <=1 
C258: x6+x58 <=1 
C259: x6+x61-y6_61 <=1 
C260: x6+x62-y6_62 <=1 
C261: x6+x63 <=1 
C262: x7+x10-y7_10 <=1 
C263: x7+x11 <=1 
C264: x7+x13-y7_13 <=1 
C265: x7+x15-y7_15 <=1 
C266: x7+x16 <=1 
C267: x7+x17 <=1 
C268: x7+x18-y7_18 <=1 
C269: x7+x19-y7_19 <=1 
C270: x7+x20 <=1 
C271: x7+x21 <=1 
C272: x7+x23-y7_23 <=1 
C273: x7+x26 <=1 
C274: x7+x28 <=1 
C275: x7+x29-y7_29 <=1 
C276: x7+x31 <=1 
C277: x7+x32-y7_32 <=1 
C278: x7+x33-y7_33 <=1 
C279: x7+x34 <=1 
C280: x7+x37-y7_37 <=1 
C281: x7+x38-y7_38 <=1 
C282: x7+x40 <=1 
C283: x7+x41-y7_41 <=1 
C284: x7+x42-y7_42 <=1 
C285: x7+x43 <=1 
C286: x7+x47 <=1 
C287: x7+x48-y7_48 <=1 
C288: x7+x49-y7_49 <=1 
C289: x7+x51 <=1 
C290: x7+x52 <=1 
C291: x7+x53-y7_53 <=1 
C292: x7+x54-y7_54 <=1 
C293: x7+x55-y7_55 <=1 
C294: x7+x56-y7_56 <=1 
C295: x7+x58-y7_58 <=1 
C296: x7+x59 <=1 
C297: x7+x61 <=1 
C298: x7+x62-y7_62 <=1 
C299: x8+x9-y8_9 <=1 
C300: x8+x11-y8_11 <=1 
C301: x8+x12-y8_12 <=1 
C302: x8+x13-y8_13 <=1 
C303: x8+x16-y8_16 <=1 
C304: x8+x18 <=1 
C305: x8+x19 <=1 
C306: x8+x20 <=1 
C307: x8+x21 <=1 
C308: x8+x24-y8_24 <=1 
C309: x8+x25-y8_25 <=1 
C310: x8+x26 <=1 
C311: x8+x27-y8_27 <=1 
C312: x8+x29 <=1 
C313: x8+x30-y8_30 <=1 
C314: x8+x31-y8_31 <=1 
C315: x8+x32-y8_32 <=1 
C316: x8+x33 <=1 
C317: x8+x34 <=1 
C318: x8+x36 <=1 
C319: x8+x39 <=1 
C320: x8+x43-y8_43 <=1 
C321: x8+x44 <=1 
C322: x8+x47 <=1 
C323: x8+x49 <=1 
C324: x8+x50 <=1 
C325: x8+x51-y8_51 <=1 
C326: x8+x52-y8_52 <=1 
C327: x8+x53 <=1 
C328: x8+x54-y8_54 <=1 
C329: x8+x55 <=1 
C330: x8+x57-y8_57 <=1 
C331: x8+x58-y8_58 <=1 
C332: x8+x60 <=1 
C333: x8+x62 <=1 
C334: x8+x63-y8_63 <=1 
C335: x9+x10 <=1 
C336: x9+x11-y9_11 <=1 
C337: x9+x12-y9_12 <=1 
C338: x9+x13-y9_13 <=1 
C339: x9+x15 <=1 
C340: x9+x16-y9_16 <=1 
C341: x9+x17-y9_17 <=1 
C342: x9+x18-y9_18 <=1 
C343: x9+x20 <=1 
C344: x9+x22-y9_22 <=1 
C345: x9+x23-y9_23 <=1 
C346: x9+x24-y9_24 <=1 
C347: x9+x25 <=1 
C348: x9+x26 <=1 
C349: x9+x27 <=1 
C350: x9+x28-y9_28 <=1 
C351: x9+x30-y9_30 <=1 
C352: x9+x31-y9_31 <=1 
C353: x9+x33 <=1 
C354: x9+x34 <=1 
C355: x9+x35 <=1 
C356: x9+x36 <=1 
C357: x9+x39 <=1 
C358: x9+x40 <=1 
C359: x9+x42 <=1 
C360: x9+x43 <=1 
C361: x9+x46-y9_46 <=1 
C362: x9+x47 <=1 
C363: x9+x48-y9_48 <=1 
C364: x9+x49-y9_49 <=1 
C365: x9+x50-y9_50 <=1 
C366: x9+x52 <=1 
C367: x9+x59-y9_59 <=1 
C368: x9+x61 <=1 
C369: x9+x62-y9_62 <=1 
C370: x10+x15-y10_15 <=1 
C371: x10+x17 <=1 
C372: x10+x20 <=1 
C373: x10+x23 <=1 
C374: x10+x24 <=1 
C375: x10+x26-y10_26 <=1 
C376: x10+x28 <=1 
C377: x10+x30-y10_30 <=1 
C378: x10+x31 <=1 
C379: x10+x33 <=1 
C380: x10+x34 <=1 
C381: x10+x35 <=1 
C382: x10+x36 <=1 
C383: x10+x38 <=1 
C384: x10+x41-y10_41 <=1 
C385: x10+x42-y10_42 <=1 
C386: x10+x43 <=1 
C387: x10+x46-y10_46 <=1 
C388: x10+x47 <=1 
C389: x10+x49 <=1 
C390: x10+x52-y10_52 <=1 
C391: x10+x53-y10_53 <=1 
C392: x10+x54-y10_54 <=1 
C393: x10+x60 <=1 
C394: x10+x61-y10_61 <=1 
C395: x10+x62 <=1 
C396: x11+x12-y11_12 <=1 
C397: x11+x13 <=1 
C398: x11+x15-y11_15 <=1 
C399: x11+x19 <=1 
C400: x11+x21 <=1 
C401: x11+x22 <=1 
C402: x11+x25 <=1 
C403: x11+x27-y11_27 <=1 
C404: x11+x28-y11_28 <=1 
C405: x11+x30 <=1 
C406: x11+x31 <=1 
C407: x11+x33 <=1 
C408: x11+x34 <=1 
C409: x11+x39 <=1 
C410: x11+x41 <=1 
C411: x11+x42-y11_42 <=1 
C412: x11+x43 <=1 
C413: x11+x44-y11_44 <=1 
C414: x11+x45-y11_45 <=1 
C415: x11+x46 <=1 
C416: x11+x49-y11_49 <=1 
C417: x11+x52-y11_52 <=1 
C418: x11+x54-y11_54 <=1 
C419: x11+x56-y11_56 <=1 
C420: x11+x57-y11_57 <=1 
C421: x11+x58-y11_58 <=1 
C422: x11+x59 <=1 
C423: x11+x61-y11_61 <=1 
C424: x11+x62 <=1 
C425: x11+x63 <=1 
C426: x12+x13-y12_13 <=1 
C427: x12+x15-y12_15 <=1 
C428: x12+x18 <=1 
C429: x12+x19-y12_19 <=1 
C430: x12+x20-y12_20 <=1 
C431: x12+x21 <=1 
C432: x12+x22-y12_22 <=1 
C433: x12+x23-y12_23 <=1 
C434: x12+x24-y12_24 <=1 
C435: x12+x25 <=1 
C436: x12+x27-y12_27 <=1 
C437: x12+x28 <=1 
C438: x12+x29-y12_29 <=1 
C439: x12+x30 <=1 
C440: x12+x32-y12_32 <=1 
C441: x12+x33 <=1 
C442: x12+x34 <=1 
C443: x12+x36-y12_36 <=1 
C444: x12+x37 <=1 
C445: x12+x40 <=1 
C446: x12+x41 <=1 
C447: x12+x44-y12_44 <=1 
C448: x12+x45-y12_45 <=1 
C449: x12+x47 <=1 
C450: x12+x48 <=1 
C451: x12+x49 <=1 
C452: x12+x50-y12_50 <=1 
C453: x12+x53 <=1 
C454: x12+x54-y12_54 <=1 
C455: x12+x55 <=1 
C456: x12+x57-y12_57 <=1 
C457: x12+x58 <=1 
C458: x12+x59 <=1 
C459: x12+x60-y12_60 <=1 
C460: x12+x62 <=1 
C461: x13+x14 <=1 
C462: x13+x19 <=1 
C463: x13+x20-y13_20 <=1 
C464: x13+x22-y13_22 <=1 
C465: x13+x24-y13_24 <=1 
C466: x13+x25 <=1 
C467: x13+x26-y13_26 <=1 
C468: x13+x28-y13_28 <=1 
C469: x13+x29-y13_29 <=1 
C470: x13+x30-y13_30 <=1 
C471: x13+x32 <=1 
C472: x13+x34 <=1 
C473: x13+x39 <=1 
C474: x13+x40-y13_40 <=1 
C475: x13+x42-y13_42 <=1 
C476: x13+x45-y13_45 <=1 
C477: x13+x48-y13_48 <=1 
C478: x13+x49 <=1 
C479: x13+x50-y13_50 <=1 
C480: x13+x51-y13_51 <=1 
C481: x13+x53 <=1 
C482: x13+x54-y13_54 <=1 
C483: x13+x56-y13_56 <=1 
C484: x13+x57-y13_57 <=1 
C485: x13+x58-y13_58 <=1 
C486: x13+x60 <=1 
C487: x13+x61 <=1 
C488: x13+x62 <=1 
C489: x13+x63 <=1 
C490: x14+x17 <=1 
C491: x14+x20-y14_20 <=1 
C492: x14+x22 <=1 
C493: x14+x23-y14_23 <=1 
C494: x14+x25 <=1 
C495: x14+x26-y14_26 <=1 
C496: x14+x28-y14_28 <=1 
C497: x14+x29-y14_29 <=1 
C498: x14+x30 <=1 
C499: x14+x31 <=1 
C500: x14+x32-y14_32 <=1 
C501: x14+x33 <=1 
C502: x14+x34 <=1 
C503: x14+x35-y14_35 <=1 
C504: x14+x37-y14_37 <=1 
C505: x14+x38-y14_38 <=1 
C506: x14+x39-y14_39 <=1 
C507: x14+x40-y14_40 <=1 
C508: x14+x41-y14_41 <=1 
C509: x14+x42 <=1 
C510: x14+x43 <=1 
C511: x14+x45-y14_45 <=1 
C512: x14+x46-y14_46 <=1 
C513: x14+x47 <=1 
C514: x14+x48-y14_48 <=1 
C515: x14+x49-y14_49 <=1 
C516: x14+x51 <=1 
C517: x14+x56 <=1 
C518: x14+x57 <=1 
C519: x14+x58-y14_58 <=1 
C520: x14+x59 <=1 
C521: x14+x60 <=1 
C522: x14+x61 <=1 
C523: x14+x63 <=1 
C524: x15+x16 <=1 
C525: x15+x17-y15_17 <=1 
C526: x15+x18 <=1 
C527: x15+x20-y15_20 <=1 
C528: x15+x22-y15_22 <=1 
C529: x15+x23 <=1 
C530: x15+x24-y15_24 <=1 
C531: x15+x25-y15_25 <=1 
C532: x15+x27 <=1 
C533: x15+x30 <=1 
C534: x15+x31 <=1 
C535: x15+x34 <=1 
C536: x15+x35-y15_35 <=1 
C537: x15+x36 <=1 
C538: x15+x37-y15_37 <=1 
C539: x15+x38 <=1 
C540: x15+x39-y15_39 <=1 
C541: x15+x43-y15_43 <=1 
C542: x15+x44-y15_44 <=1 
C543: x15+x45-y15_45 <=1 
C544: x15+x47 <=1 
C545: x15+x51 <=1 
C546: x15+x54-y15_54 <=1 
C547: x15+x55 <=1 
C548: x15+x56 <=1 
C549: x15+x58-y15_58 <=1 
C550: x15+x60-y15_60 <=1 
C551: x15+x62-y15_62 <=1 
C552: x15+x63-y15_63 <=1 
C553: x16+x26-y16_26 <=1 
C554: x16+x30-y16_30 <=1 
C555: x16+x32-y16_32 <=1 
C556: x16+x34-y16_34 <=1 
C557: x16+x35 <=1 
C558: x16+x36-y16_36 <=1 
C559: x16+x37-y16_37 <=1 
C560: x16+x38-y16_38 <=1 
C561: x16+x39-y16_39 <=1 
C562: x16+x41-y16_41 <=1 
C563: x16+x42 <=1 
C564: x16+x45-y16_45 <=1 
C565: x16+x47-y16_47 <=1 
C566: x16+x48-y16_48 <=1 
C567: x16+x50 <=1 
C568: x16+x51-y16_51 <=1 
C569: x16+x52 <=1 
C570: x16+x53-y16_53 <=1 
C571: x16+x54 <=1 
C572: x16+x57 <=1 
C573: x16+x59-y16_59 <=1 
C574: x16+x60-y16_60 <=1 
C575: x16+x61 <=1 
C576: x16+x63 <=1 
C577: x17+x18 <=1 
C578: x17+x19 <=1 
C579: x17+x20 <=1 
C580: x17+x21 <=1 
C581: x17+x22-y17_22 <=1 
C582: x17+x23-y17_23 <=1 
C583: x17+x24-y17_24 <=1 
C584: x17+x25-y17_25 <=1 
C585: x17+x26 <=1 
C586: x17+x27 <=1 
C587: x17+x29-y17_29 <=1 
C588: x17+x30 <=1 
C589: x17+x31 <=1 
C590: x17+x32-y17_32 <=1 
C591: x17+x33 <=1 
C592: x17+x35 <=1 
C593: x17+x36 <=1 
C594: x17+x37-y17_37 <=1 
C595: x17+x38-y17_38 <=1 
C596: x17+x41 <=1 
C597: x17+x42 <=1 
C598: x17+x44-y17_44 <=1 
C599: x17+x45-y17_45 <=1 
C600: x17+x50-y17_50 <=1 
C601: x17+x51 <=1 
C602: x17+x53-y17_53 <=1 
C603: x17+x54-y17_54 <=1 
C604: x17+x57 <=1 
C605: x17+x59 <=1 
C606: x17+x60 <=1 
C607: x17+x61 <=1 
C608: x18+x21 <=1 
C609: x18+x22-y18_22 <=1 
C610: x18+x23 <=1 
C611: x18+x24 <=1 
C612: x18+x25 <=1 
C613: x18+x28-y18_28 <=1 
C614: x18+x29-y18_29 <=1 
C615: x18+x30-y18_30 <=1 
C616: x18+x31 <=1 
C617: x18+x32-y18_32 <=1 
C618: x18+x35 <=1 
C619: x18+x36 <=1 
C620: x18+x39-y18_39 <=1 
C621: x18+x40 <=1 
C622: x18+x42 <=1 
C623: x18+x45 <=1 
C624: x18+x50-y18_50 <=1 
C625: x18+x52 <=1 
C626: x18+x53 <=1 
C627: x18+x55-y18_55 <=1 
C628: x18+x56-y18_56 <=1 
C629: x18+x57-y18_57 <=1 
C630: x18+x59-y18_59 <=1 
C631: x18+x61 <=1 
C632: x18+x62-y18_62 <=1 
C633: x19+x20 <=1 
C634: x19+x22 <=1 
C635: x19+x23 <=1 
C636: x19+x24-y19_24 <=1 
C637: x19+x26-y19_26 <=1 
C638: x19+x27-y19_27 <=1 
C639: x19+x28-y19_28 <=1 
C640: x19+x29-y19_29 <=1 
C641: x19+x30 <=1 
C642: x19+x31-y19_31 <=1 
C643: x19+x32-y19_32 <=1 
C644: x19+x33-y19_33 <=1 
C645: x19+x37 <=1 
C646: x19+x38 <=1 
C647: x19+x40-y19_40 <=1 
C648: x19+x42-y19_42 <=1 
C649: x19+x46-y19_46 <=1 
C650: x19+x53-y19_53 <=1 
C651: x19+x54 <=1 
C652: x19+x56 <=1 
C653: x19+x57-y19_57 <=1 
C654: x19+x59 <=1 
C655: x19+x61-y19_61 <=1 
C656: x19+x62-y19_62 <=1 
C657: x19+x63 <=1 
C658: x20+x21-y20_21 <=1 
C659: x20+x23-y20_23 <=1 
C660: x20+x26-y20_26 <=1 
C661: x20+x27 <=1 
C662: x20+x29 <=1 
C663: x20+x31 <=1 
C664: x20+x33 <=1 
C665: x20+x35 <=1 
C666: x20+x39-y20_39 <=1 
C667: x20+x40 <=1 
C668: x20+x41 <=1 
C669: x20+x44-y20_44 <=1 
C670: x20+x45 <=1 
C671: x20+x48-y20_48 <=1 
C672: x20+x49-y20_49 <=1 
C673: x20+x50 <=1 
C674: x20+x51 <=1 
C675: x20+x55 <=1 
C676: x20+x57 <=1 
C677: x20+x58 <=1 
C678: x20+x60-y20_60 <=1 
C679: x20+x61 <=1 
C680: x20+x62 <=1 
C681: x21+x23 <=1 
C682: x21+x25-y21_25 <=1 
C683: x21+x29 <=1 
C684: x21+x30-y21_30 <=1 
C685: x21+x32-y21_32 <=1 
C686: x21+x33-y21_33 <=1 
C687: x21+x35 <=1 
C688: x21+x37 <=1 
C689: x21+x38-y21_38 <=1 
C690: x21+x39-y21_39 <=1 
C691: x21+x41 <=1 
C692: x21+x42-y21_42 <=1 
C693: x21+x43-y21_43 <=1 
C694: x21+x45-y21_45 <=1 
C695: x21+x46 <=1 
C696: x21+x48 <=1 
C697: x21+x49-y21_49 <=1 
C698: x21+x51 <=1 
C699: x21+x52-y21_52 <=1 
C700: x21+x53 <=1 
C701: x21+x54 <=1 
C702: x21+x55-y21_55 <=1 
C703: x21+x61-y21_61 <=1 
C704: x21+x62-y21_62 <=1 
C705: x22+x23 <=1 
C706: x22+x24-y22_24 <=1 
C707: x22+x27 <=1 
C708: x22+x28 <=1 
C709: x22+x29-y22_29 <=1 
C710: x22+x31 <=1 
C711: x22+x32-y22_32 <=1 
C712: x22+x33 <=1 
C713: x22+x36-y22_36 <=1 
C714: x22+x37-y22_37 <=1 
C715: x22+x39-y22_39 <=1 
C716: x22+x45-y22_45 <=1 
C717: x22+x48-y22_48 <=1 
C718: x22+x50 <=1 
C719: x22+x53-y22_53 <=1 
C720: x22+x55 <=1 
C721: x22+x57 <=1 
C722: x22+x58 <=1 
C723: x22+x59-y22_59 <=1 
C724: x22+x61-y22_61 <=1 
C725: x22+x62-y22_62 <=1 
C726: x23+x24 <=1 
C727: x23+x25-y23_25 <=1 
C728: x23+x26 <=1 
C729: x23+x28 <=1 
C730: x23+x29 <=1 
C731: x23+x30 <=1 
C732: x23+x35-y23_35 <=1 
C733: x23+x36-y23_36 <=1 
C734: x23+x37 <=1 
C735: x23+x39 <=1 
C736: x23+x40 <=1 
C737: x23+x46 <=1 
C738: x23+x50 <=1 
C739: x23+x51 <=1 
C740: x23+x52 <=1 
C741: x23+x53 <=1 
C742: x23+x54-y23_54 <=1 
C743: x23+x55 <=1 
C744: x23+x56-y23_56 <=1 
C745: x23+x57 <=1 
C746: x23+x58-y23_58 <=1 
C747: x23+x63-y23_63 <=1 
C748: x24+x26-y24_26 <=1 
C749: x24+x27-y24_27 <=1 
C750: x24+x28-y24_28 <=1 
C751: x24+x29 <=1 
C752: x24+x31 <=1 
C753: x24+x32 <=1 
C754: x24+x34-y24_34 <=1 
C755: x24+x35-y24_35 <=1 
C756: x24+x38 <=1 
C757: x24+x39-y24_39 <=1 
C758: x24+x43 <=1 
C759: x24+x46 <=1 
C760: x24+x47-y24_47 <=1 
C761: x24+x49-y24_49 <=1 
C762: x24+x50-y24_50 <=1 
C763: x24+x51 <=1 
C764: x24+x52-y24_52 <=1 
C765: x24+x57-y24_57 <=1 
C766: x24+x58-y24_58 <=1 
C767: x24+x59 <=1 
C768: x24+x60-y24_60 <=1 
C769: x24+x62 <=1 
C770: x25+x27-y25_27 <=1 
C771: x25+x29-y25_29 <=1 
C772: x25+x30-y25_30 <=1 
C773: x25+x31 <=1 
C774: x25+x33-y25_33 <=1 
C775: x25+x34-y25_34 <=1 
C776: x25+x38 <=1 
C777: x25+x43 <=1 
C778: x25+x45 <=1 
C779: x25+x48-y25_48 <=1 
C780: x25+x53-y25_53 <=1 
C781: x25+x56-y25_56 <=1 
C782: x25+x58 <=1 
C783: x25+x59 <=1 
C784: x25+x60-y25_60 <=1 
C785: x25+x62-y25_62 <=1 
C786: x25+x63 <=1 
C787: x26+x27 <=1 
C788: x26+x28 <=1 
C789: x26+x32-y26_32 <=1 
C790: x26+x33-y26_33 <=1 
C791: x26+x34-y26_34 <=1 
C792: x26+x35 <=1 
C793: x26+x37-y26_37 <=1 
C794: x26+x39-y26_39 <=1 
C795: x26+x42 <=1 
C796: x26+x43 <=1 
C797: x26+x44 <=1 
C798: x26+x46-y26_46 <=1 
C799: x26+x47 <=1 
C800: x26+x48-y26_48 <=1 
C801: x26+x50-y26_50 <=1 
C802: x26+x53 <=1 
C803: x26+x55 <=1 
C804: x26+x57-y26_57 <=1 
C805: x26+x58 <=1 
C806: x26+x60 <=1 
C807: x26+x61 <=1 
C808: x26+x62 <=1 
C809: x26+x63 <=1 
C810: x27+x30-y27_30 <=1 
C811: x27+x31 <=1 
C812: x27+x33-y27_33 <=1 
C813: x27+x36-y27_36 <=1 
C814: x27+x37 <=1 
C815: x27+x38-y27_38 <=1 
C816: x27+x39-y27_39 <=1 
C817: x27+x40 <=1 
C818: x27+x41-y27_41 <=1 
C819: x27+x44 <=1 
C820: x27+x45 <=1 
C821: x27+x46-y27_46 <=1 
C822: x27+x49 <=1 
C823: x27+x51-y27_51 <=1 
C824: x27+x52 <=1 
C825: x27+x53-y27_53 <=1 
C826: x27+x56-y27_56 <=1 
C827: x27+x57-y27_57 <=1 
C828: x27+x59-y27_59 <=1 
C829: x27+x60 <=1 
C830: x27+x63-y27_63 <=1 
C831: x28+x29 <=1 
C832: x28+x31-y28_31 <=1 
C833: x28+x32 <=1 
C834: x28+x36-y28_36 <=1 
C835: x28+x37-y28_37 <=1 
C836: x28+x38 <=1 
C837: x28+x40 <=1 
C838: x28+x41-y28_41 <=1 
C839: x28+x43-y28_43 <=1 
C840: x28+x44 <=1 
C841: x28+x45 <=1 
C842: x28+x47-y28_47 <=1 
C843: x28+x52-y28_52 <=1 
C844: x28+x53 <=1 
C845: x28+x55 <=1 
C846: x28+x57-y28_57 <=1 
C847: x28+x58 <=1 
C848: x28+x60-y28_60 <=1 
C849: x28+x61 <=1 
C850: x28+x62 <=1 
C851: x29+x30-y29_30 <=1 
C852: x29+x32-y29_32 <=1 
C853: x29+x34-y29_34 <=1 
C854: x29+x38 <=1 
C855: x29+x39-y29_39 <=1 
C856: x29+x41 <=1 
C857: x29+x42 <=1 
C858: x29+x44 <=1 
C859: x29+x48-y29_48 <=1 
C860: x29+x51-y29_51 <=1 
C861: x29+x52-y29_52 <=1 
C862: x29+x53 <=1 
C863: x29+x54-y29_54 <=1 
C864: x29+x55-y29_55 <=1 
C865: x29+x57 <=1 
C866: x29+x59-y29_59 <=1 
C867: x29+x60-y29_60 <=1 
C868: x29+x61 <=1 
C869: x29+x62-y29_62 <=1 
C870: x29+x63-y29_63 <=1 
C871: x30+x31-y30_31 <=1 
C872: x30+x32-y30_32 <=1 
C873: x30+x34 <=1 
C874: x30+x35-y30_35 <=1 
C875: x30+x36-y30_36 <=1 
C876: x30+x37 <=1 
C877: x30+x38-y30_38 <=1 
C878: x30+x39-y30_39 <=1 
C879: x30+x41 <=1 
C880: x30+x42 <=1 
C881: x30+x43-y30_43 <=1 
C882: x30+x44-y30_44 <=1 
C883: x30+x47-y30_47 <=1 
C884: x30+x48 <=1 
C885: x30+x49-y30_49 <=1 
C886: x30+x50 <=1 
C887: x30+x51 <=1 
C888: x30+x52 <=1 
C889: x30+x54-y30_54 <=1 
C890: x30+x55 <=1 
C891: x30+x56 <=1 
C892: x30+x58 <=1 
C893: x30+x59 <=1 
C894: x30+x60 <=1 
C895: x30+x61 <=1 
C896: x30+x62-y30_62 <=1 
C897: x30+x63-y30_63 <=1 
C898: x31+x32 <=1 
C899: x31+x35-y31_35 <=1 
C900: x31+x36-y31_36 <=1 
C901: x31+x37 <=1 
C902: x31+x38 <=1 
C903: x31+x39-y31_39 <=1 
C904: x31+x40 <=1 
C905: x31+x41-y31_41 <=1 
C906: x31+x42 <=1 
C907: x31+x45 <=1 
C908: x31+x46 <=1 
C909: x31+x48 <=1 
C910: x31+x49-y31_49 <=1 
C911: x31+x50 <=1 
C912: x31+x51 <=1 
C913: x31+x52-y31_52 <=1 
C914: x31+x54-y31_54 <=1 
C915: x31+x55 <=1 
C916: x31+x56-y31_56 <=1 
C917: x31+x59 <=1 
C918: x31+x63-y31_63 <=1 
C919: x32+x33 <=1 
C920: x32+x35-y32_35 <=1 
C921: x32+x36 <=1 
C922: x32+x37-y32_37 <=1 
C923: x32+x38-y32_38 <=1 
C924: x32+x39-y32_39 <=1 
C925: x32+x40 <=1 
C926: x32+x42 <=1 
C927: x32+x43 <=1 
C928: x32+x44-y32_44 <=1 
C929: x32+x45-y32_45 <=1 
C930: x32+x48-y32_48 <=1 
C931: x32+x49 <=1 
C932: x32+x50-y32_50 <=1 
C933: x32+x53 <=1 
C934: x32+x54-y32_54 <=1 
C935: x32+x55-y32_55 <=1 
C936: x32+x58-y32_58 <=1 
C937: x32+x61 <=1 
C938: x32+x63-y32_63 <=1 
C939: x33+x35-y33_35 <=1 
C940: x33+x38-y33_38 <=1 
C941: x33+x39-y33_39 <=1 
C942: x33+x40 <=1 
C943: x33+x42 <=1 
C944: x33+x45 <=1 
C945: x33+x47-y33_47 <=1 
C946: x33+x48-y33_48 <=1 
C947: x33+x49-y33_49 <=1 
C948: x33+x50 <=1 
C949: x33+x51 <=1 
C950: x33+x52 <=1 
C951: x33+x55 <=1 
C952: x33+x56 <=1 
C953: x33+x57-y33_57 <=1 
C954: x33+x58-y33_58 <=1 
C955: x33+x59-y33_59 <=1 
C956: x33+x60 <=1 
C957: x33+x61-y33_61 <=1 
C958: x33+x62 <=1 
C959: x33+x63 <=1 
C960: x34+x36 <=1 
C961: x34+x37-y34_37 <=1 
C962: x34+x38 <=1 
C963: x34+x39-y34_39 <=1 
C964: x34+x41 <=1 
C965: x34+x44-y34_44 <=1 
C966: x34+x46-y34_46 <=1 
C967: x34+x49-y34_49 <=1 
C968: x34+x51 <=1 
C969: x34+x52 <=1 
C970: x34+x53-y34_53 <=1 
C971: x34+x54 <=1 
C972: x34+x55-y34_55 <=1 
C973: x34+x56-y34_56 <=1 
C974: x34+x57-y34_57 <=1 
C975: x34+x59-y34_59 <=1 
C976: x34+x60-y34_60 <=1 
C977: x34+x61-y34_61 <=1 
C978: x34+x62 <=1 
C979: x34+x63-y34_63 <=1 
C980: x35+x37-y35_37 <=1 
C981: x35+x39-y35_39 <=1 
C982: x35+x41 <=1 
C983: x35+x42-y35_42 <=1 
C984: x35+x44 <=1 
C985: x35+x46-y35_46 <=1 
C986: x35+x48 <=1 
C987: x35+x49-y35_49 <=1 
C988: x35+x50-y35_50 <=1 
C989: x35+x51-y35_51 <=1 
C990: x35+x52 <=1 
C991: x35+x53-y35_53 <=1 
C992: x35+x54 <=1 
C993: x35+x57 <=1 
C994: x35+x58-y35_58 <=1 
C995: x35+x61 <=1 
C996: x35+x63 <=1 
C997: x36+x37 <=1 
C998: x36+x38-y36_38 <=1 
C999: x36+x40-y36_40 <=1 
C1000: x36+x42-y36_42 <=1 
C1001: x36+x43 <=1 
C1002: x36+x45 <=1 
C1003: x36+x46-y36_46 <=1 
C1004: x36+x48-y36_48 <=1 
C1005: x36+x54 <=1 
C1006: x36+x56-y36_56 <=1 
C1007: x36+x57 <=1 
C1008: x36+x59 <=1 
C1009: x36+x60 <=1 
C1010: x36+x63-y36_63 <=1 
C1011: x37+x39-y37_39 <=1 
C1012: x37+x43 <=1 
C1013: x37+x45 <=1 
C1014: x37+x46 <=1 
C1015: x37+x49 <=1 
C1016: x37+x50-y37_50 <=1 
C1017: x37+x51-y37_51 <=1 
C1018: x37+x52 <=1 
C1019: x37+x53 <=1 
C1020: x37+x54 <=1 
C1021: x37+x55 <=1 
C1022: x37+x56-y37_56 <=1 
C1023: x37+x58-y37_58 <=1 
C1024: x37+x59 <=1 
C1025: x37+x61-y37_61 <=1 
C1026: x37+x62-y37_62 <=1 
C1027: x38+x40-y38_40 <=1 
C1028: x38+x41-y38_41 <=1 
C1029: x38+x43-y38_43 <=1 
C1030: x38+x44 <=1 
C1031: x38+x45-y38_45 <=1 
C1032: x38+x46-y38_46 <=1 
C1033: x38+x48 <=1 
C1034: x38+x49-y38_49 <=1 
C1035: x38+x50 <=1 
C1036: x38+x52 <=1 
C1037: x38+x53 <=1 
C1038: x38+x55 <=1 
C1039: x38+x58-y38_58 <=1 
C1040: x39+x40-y39_40 <=1 
C1041: x39+x41 <=1 
C1042: x39+x42-y39_42 <=1 
C1043: x39+x43 <=1 
C1044: x39+x44-y39_44 <=1 
C1045: x39+x45-y39_45 <=1 
C1046: x39+x46-y39_46 <=1 
C1047: x39+x49 <=1 
C1048: x39+x50-y39_50 <=1 
C1049: x39+x56-y39_56 <=1 
C1050: x39+x59 <=1 
C1051: x39+x61-y39_61 <=1 
C1052: x40+x41 <=1 
C1053: x40+x42 <=1 
C1054: x40+x44 <=1 
C1055: x40+x45 <=1 
C1056: x40+x48 <=1 
C1057: x40+x51 <=1 
C1058: x40+x52 <=1 
C1059: x40+x54 <=1 
C1060: x40+x56-y40_56 <=1 
C1061: x40+x58-y40_58 <=1 
C1062: x40+x63 <=1 
C1063: x41+x42-y41_42 <=1 
C1064: x41+x45-y41_45 <=1 
C1065: x41+x46 <=1 
C1066: x41+x49 <=1 
C1067: x41+x50-y41_50 <=1 
C1068: x41+x51 <=1 
C1069: x41+x53 <=1 
C1070: x41+x56-y41_56 <=1 
C1071: x41+x57 <=1 
C1072: x41+x58-y41_58 <=1 
C1073: x41+x59-y41_59 <=1 
C1074: x41+x61 <=1 
C1075: x41+x62 <=1 
C1076: x41+x63 <=1 
C1077: x42+x44-y42_44 <=1 
C1078: x42+x46-y42_46 <=1 
C1079: x42+x48 <=1 
C1080: x42+x55-y42_55 <=1 
C1081: x42+x58-y42_58 <=1 
C1082: x42+x60-y42_60 <=1 
C1083: x42+x61-y42_61 <=1 
C1084: x42+x63 <=1 
C1085: x43+x44 <=1 
C1086: x43+x45-y43_45 <=1 
C1087: x43+x48-y43_48 <=1 
C1088: x43+x49 <=1 
C1089: x43+x51 <=1 
C1090: x43+x53 <=1 
C1091: x43+x55 <=1 
C1092: x43+x58-y43_58 <=1 
C1093: x43+x60-y43_60 <=1 
C1094: x43+x61-y43_61 <=1 
C1095: x43+x63-y43_63 <=1 
C1096: x44+x45 <=1 
C1097: x44+x46 <=1 
C1098: x44+x47-y44_47 <=1 
C1099: x44+x48-y44_48 <=1 
C1100: x44+x49-y44_49 <=1 
C1101: x44+x51-y44_51 <=1 
C1102: x44+x52-y44_52 <=1 
C1103: x44+x54-y44_54 <=1 
C1104: x44+x55 <=1 
C1105: x44+x56-y44_56 <=1 
C1106: x44+x57 <=1 
C1107: x44+x61 <=1 
C1108: x44+x62 <=1 
C1109: x45+x48 <=1 
C1110: x45+x49 <=1 
C1111: x45+x50-y45_50 <=1 
C1112: x45+x53-y45_53 <=1 
C1113: x45+x57-y45_57 <=1 
C1114: x45+x60-y45_60 <=1 
C1115: x46+x48 <=1 
C1116: x46+x49-y46_49 <=1 
C1117: x46+x54 <=1 
C1118: x46+x55-y46_55 <=1 
C1119: x46+x56 <=1 
C1120: x46+x57-y46_57 <=1 
C1121: x46+x58 <=1 
C1122: x46+x59 <=1 
C1123: x46+x62-y46_62 <=1 
C1124: x46+x63-y46_63 <=1 
C1125: x47+x48-y47_48 <=1 
C1126: x47+x49-y47_49 <=1 
C1127: x47+x50-y47_50 <=1 
C1128: x47+x51-y47_51 <=1 
C1129: x47+x52-y47_52 <=1 
C1130: x47+x53-y47_53 <=1 
C1131: x47+x55-y47_55 <=1 
C1132: x47+x57 <=1 
C1133: x47+x58 <=1 
C1134: x47+x59 <=1 
C1135: x47+x60 <=1 
C1136: x47+x61 <=1 
C1137: x47+x62-y47_62 <=1 
C1138: x47+x63 <=1 
C1139: x48+x49 <=1 
C1140: x48+x51 <=1 
C1141: x48+x52 <=1 
C1142: x48+x53-y48_53 <=1 
C1143: x48+x55 <=1 
C1144: x48+x56-y48_56 <=1 
C1145: x48+x59 <=1 
C1146: x48+x60 <=1 
C1147: x48+x62 <=1 
C1148: x48+x63-y48_63 <=1 
C1149: x49+x50 <=1 
C1150: x49+x52 <=1 
C1151: x49+x53-y49_53 <=1 
C1152: x49+x54-y49_54 <=1 
C1153: x49+x55 <=1 
C1154: x49+x57 <=1 
C1155: x49+x58-y49_58 <=1 
C1156: x49+x59-y49_59 <=1 
C1157: x49+x60-y49_60 <=1 
C1158: x49+x63 <=1 
C1159: x50+x51 <=1 
C1160: x50+x52 <=1 
C1161: x50+x53-y50_53 <=1 
C1162: x50+x55-y50_55 <=1 
C1163: x50+x57-y50_57 <=1 
C1164: x50+x58-y50_58 <=1 
C1165: x50+x60-y50_60 <=1 
C1166: x50+x62 <=1 
C1167: x50+x63 <=1 
C1168: x51+x54 <=1 
C1169: x51+x58 <=1 
C1170: x51+x60 <=1 
C1171: x51+x61-y51_61 <=1 
C1172: x52+x53-y52_53 <=1 
C1173: x52+x54-y52_54 <=1 
C1174: x52+x55-y52_55 <=1 
C1175: x52+x56-y52_56 <=1 
C1176: x52+x57 <=1 
C1177: x52+x58 <=1 
C1178: x52+x59 <=1 
C1179: x52+x60-y52_60 <=1 
C1180: x53+x55-y53_55 <=1 
C1181: x53+x58-y53_58 <=1 
C1182: x53+x59-y53_59 <=1 
C1183: x53+x60-y53_60 <=1 
C1184: x53+x62-y53_62 <=1 
C1185: x53+x63-y53_63 <=1 
C1186: x54+x55-y54_55 <=1 
C1187: x54+x57-y54_57 <=1 
C1188: x54+x60 <=1 
C1189: x54+x61 <=1 
C1190: x54+x62-y54_62 <=1 
C1191: x54+x63-y54_63 <=1 
C1192: x55+x56-y55_56 <=1 
C1193: x55+x57-y55_57 <=1 
C1194: x55+x58 <=1 
C1195: x55+x59-y55_59 <=1 
C1196: x55+x61 <=1 
C1197: x55+x63 <=1 
C1198: x56+x58-y56_58 <=1 
C1199: x56+x59 <=1 
C1200: x56+x60-y56_60 <=1 
C1201: x56+x63-y56_63 <=1 
C1202: x57+x58 <=1 
C1203: x57+x60-y57_60 <=1 
C1204: x57+x61 <=1 
C1205: x58+x59-y58_59 <=1 
C1206: x58+x61 <=1 
C1207: x58+x62 <=1 
C1208: x58+x63 <=1 
C1209: x59+x62 <=1 
C1210: x59+x63-y59_63 <=1 
C1211: x60+x61 <=1 
C1212: x60+x62 <=1 

binary
x0
x1
x2
x3
x4
x5
x6
x7
x8
x9
x10
x11
x12
x13
x14
x15
x16
x17
x18
x19
x20
x21
x22
x23
x24
x25
x26
x27
x28
x29
x30
x31
x32
x33
x34
x35
x36
x37
x38
x39
x40
x41
x42
x43
x44
x45
x46
x47
x48
x49
x50
x51
x52
x53
x54
x55
x56
x57
x58
x59
x60
x61
x62
x63
