problem_generation/data/GISP/train/er_n=64_m=1212_p=0.60_SET2_setparam=100.00_alpha=0.50_962.sol
objective value:                                 1268
x19                                                 1 	(obj:100)
x25                                                 1 	(obj:100)
x27                                                 1 	(obj:100)
x35                                                 1 	(obj:100)
x36                                                 1 	(obj:100)
x39                                                 1 	(obj:100)
x42                                                 1 	(obj:100)
x46                                                 1 	(obj:100)
x47                                                 1 	(obj:100)
x51                                                 1 	(obj:100)
x53                                                 1 	(obj:100)
x55                                                 1 	(obj:100)
x62                                                 1 	(obj:100)
y47_53                                              1 	(obj:-1)
y47_62                                              1 	(obj:-1)
y35_46                                              1 	(obj:-1)
y36_42                                              1 	(obj:-1)
y47_51                                              1 	(obj:-1)
y46_55                                              1 	(obj:-1)
y19_46                                              1 	(obj:-1)
y39_42                                              1 	(obj:-1)
y53_62                                              1 	(obj:-1)
y27_36                                              1 	(obj:-1)
y39_46                                              1 	(obj:-1)
y19_27                                              1 	(obj:-1)
y27_53                                              1 	(obj:-1)
y27_39                                              1 	(obj:-1)
y36_46                                              1 	(obj:-1)
y47_55                                              1 	(obj:-1)
y25_27                                              1 	(obj:-1)
y35_53                                              1 	(obj:-1)
y35_39                                              1 	(obj:-1)
y46_62                                              1 	(obj:-1)
y42_46                                              1 	(obj:-1)
y19_53                                              1 	(obj:-1)
y42_55                                              1 	(obj:-1)
y19_62                                              1 	(obj:-1)
y35_42                                              1 	(obj:-1)
y35_51                                              1 	(obj:-1)
y53_55                                              1 	(obj:-1)
y27_51                                              1 	(obj:-1)
y27_46                                              1 	(obj:-1)
y19_42                                              1 	(obj:-1)
y25_53                                              1 	(obj:-1)
y25_62                                              1 	(obj:-1)
